pRobustCbss/GLKH-1.1/TMP/mtspf.pid6402.atsp
NAME : mtspf.pid6402.gtsp
TYPE : ATSP
DIMENSION : 45
EDGE_WEIGHT_TYPE : EXPLICIT
EDGE_WEIGHT_FORMAT : FULL_MATRIX
EDGE_WEIGHT_SECTION
999999 5368709 5368709 5368709 5368709 5368804 5368805 5368806 5368805 5368786 5368787 5368788 5368787 5368793 5368792 5368793 5368794 5368794 5368795 5368796 5368795 5368789 5368790 5368789 5368788 5368747 5368746 5368747 5368748 5368748 5368749 5368748 5368747 5368769 5368768 5368767 5368768 5368778 5368779 5368780 5368779 5368740 5368741 5368742 5368741 
5368709 999999 5368709 5368709 5368709 5368790 5368791 5368792 5368791 5368772 5368773 5368774 5368773 5368779 5368778 5368779 5368780 5368762 5368763 5368764 5368763 5368737 5368738 5368737 5368736 5368739 5368740 5368741 5368740 5368732 5368731 5368732 5368733 5368755 5368754 5368753 5368754 5368764 5368765 5368766 5368765 5368776 5368777 5368778 5368777 
5368709 5368709 999999 5368709 5368709 5368800 5368801 5368802 5368801 5368782 5368783 5368784 5368783 5368789 5368788 5368789 5368790 5368796 5368797 5368798 5368797 5368791 5368792 5368791 5368790 5368743 5368742 5368743 5368744 5368750 5368751 5368750 5368749 5368765 5368764 5368763 5368764 5368774 5368775 5368776 5368775 5368736 5368737 5368738 5368737 
5368709 5368709 5368709 999999 5368709 5368779 5368780 5368781 5368780 5368761 5368762 5368763 5368762 5368768 5368767 5368768 5368769 5368765 5368766 5368767 5368766 5368760 5368761 5368760 5368759 5368722 5368721 5368720 5368721 5368721 5368720 5368719 5368720 5368744 5368743 5368742 5368743 5368753 5368754 5368755 5368754 5368755 5368756 5368757 5368756 
5368709 5368709 5368709 5368709 999999 5368718 5368717 5368718 5368719 5368736 5368735 5368736 5368737 5368759 5368758 5368759 5368760 5368822 5368823 5368824 5368823 5368821 5368822 5368821 5368820 5368773 5368774 5368775 5368774 5368778 5368777 5368776 5368777 5368757 5368758 5368757 5368756 5368742 5368741 5368740 5368741 5368814 5368815 5368816 5368815 
5368709 5368709 5368709 5368709 5368709 999999 0 10737418 10737418 5368730 5368729 5368728 5368729 5368753 5368752 5368753 5368754 5368818 5368819 5368820 5368819 5368817 5368818 5368817 5368816 5368769 5368770 5368771 5368770 5368774 5368773 5368772 5368773 5368753 5368754 5368753 5368752 5368738 5368739 5368738 5368737 5368810 5368811 5368812 5368811 
5368709 5368709 5368709 5368709 5368709 10737418 999999 0 10737418 5368729 5368728 5368727 5368728 5368752 5368751 5368752 5368753 5368817 5368818 5368819 5368818 5368816 5368817 5368816 5368815 5368768 5368769 5368770 5368769 5368773 5368772 5368771 5368772 5368752 5368753 5368752 5368751 5368737 5368738 5368737 5368736 5368809 5368810 5368811 5368810 
5368709 5368709 5368709 5368709 5368709 10737418 10737418 999999 0 5368730 5368729 5368728 5368729 5368753 5368752 5368753 5368754 5368818 5368819 5368820 5368819 5368817 5368818 5368817 5368816 5368769 5368770 5368771 5368770 5368774 5368773 5368772 5368773 5368753 5368754 5368753 5368752 5368738 5368737 5368736 5368737 5368810 5368811 5368812 5368811 
5368709 5368709 5368709 5368709 5368709 0 10737418 10737418 999999 5368731 5368730 5368729 5368730 5368754 5368753 5368754 5368755 5368819 5368820 5368821 5368820 5368818 5368819 5368818 5368817 5368770 5368771 5368772 5368771 5368775 5368774 5368773 5368774 5368754 5368755 5368754 5368753 5368739 5368738 5368737 5368738 5368811 5368812 5368813 5368812 
5368709 5368709 5368709 5368709 5368709 5368728 5368729 5368730 5368729 999999 0 10737418 10737418 5368735 5368734 5368735 5368736 5368800 5368801 5368802 5368801 5368799 5368800 5368799 5368798 5368751 5368752 5368753 5368752 5368756 5368755 5368754 5368755 5368735 5368736 5368735 5368734 5368720 5368721 5368720 5368719 5368792 5368793 5368794 5368793 
5368709 5368709 5368709 5368709 5368709 5368729 5368730 5368731 5368730 10737418 999999 0 10737418 5368734 5368733 5368734 5368735 5368799 5368800 5368801 5368800 5368798 5368799 5368798 5368797 5368750 5368751 5368752 5368751 5368755 5368754 5368753 5368754 5368734 5368735 5368734 5368733 5368719 5368720 5368719 5368718 5368791 5368792 5368793 5368792 
5368709 5368709 5368709 5368709 5368709 5368728 5368729 5368730 5368729 10737418 10737418 999999 0 5368735 5368734 5368735 5368736 5368800 5368801 5368802 5368801 5368799 5368800 5368799 5368798 5368751 5368752 5368753 5368752 5368756 5368755 5368754 5368755 5368735 5368736 5368735 5368734 5368720 5368719 5368718 5368719 5368792 5368793 5368794 5368793 
5368709 5368709 5368709 5368709 5368709 5368727 5368728 5368729 5368728 0 10737418 10737418 999999 5368736 5368735 5368736 5368737 5368801 5368802 5368803 5368802 5368800 5368801 5368800 5368799 5368752 5368753 5368754 5368753 5368757 5368756 5368755 5368756 5368736 5368737 5368736 5368735 5368721 5368720 5368719 5368720 5368793 5368794 5368795 5368794 
5368709 5368709 5368709 5368709 5368709 5368753 5368754 5368755 5368754 5368735 5368736 5368737 5368736 999999 0 10737418 10737418 5368807 5368808 5368809 5368808 5368806 5368807 5368806 5368805 5368758 5368759 5368760 5368759 5368763 5368762 5368761 5368762 5368736 5368737 5368738 5368737 5368729 5368730 5368731 5368730 5368799 5368800 5368801 5368800 
5368709 5368709 5368709 5368709 5368709 5368752 5368753 5368754 5368753 5368734 5368735 5368736 5368735 10737418 999999 0 10737418 5368806 5368807 5368808 5368807 5368805 5368806 5368805 5368804 5368757 5368758 5368759 5368758 5368762 5368761 5368760 5368761 5368735 5368736 5368737 5368736 5368728 5368729 5368730 5368729 5368798 5368799 5368800 5368799 
5368709 5368709 5368709 5368709 5368709 5368751 5368752 5368753 5368752 5368733 5368734 5368735 5368734 10737418 10737418 999999 0 5368805 5368806 5368807 5368806 5368804 5368805 5368804 5368803 5368756 5368757 5368758 5368757 5368761 5368760 5368759 5368760 5368734 5368735 5368736 5368735 5368727 5368728 5368729 5368728 5368797 5368798 5368799 5368798 
5368709 5368709 5368709 5368709 5368709 5368752 5368753 5368754 5368753 5368734 5368735 5368736 5368735 0 10737418 10737418 999999 5368806 5368807 5368808 5368807 5368805 5368806 5368805 5368804 5368757 5368758 5368759 5368758 5368762 5368761 5368760 5368761 5368735 5368736 5368737 5368736 5368728 5368729 5368730 5368729 5368798 5368799 5368800 5368799 
5368709 5368709 5368709 5368709 5368709 5368818 5368819 5368820 5368819 5368800 5368801 5368802 5368801 5368807 5368806 5368807 5368808 999999 0 10737418 10737418 5368785 5368786 5368785 5368784 5368771 5368772 5368773 5368772 5368760 5368759 5368760 5368761 5368783 5368782 5368781 5368782 5368792 5368793 5368794 5368793 5368808 5368809 5368810 5368809 
5368709 5368709 5368709 5368709 5368709 5368817 5368818 5368819 5368818 5368799 5368800 5368801 5368800 5368806 5368805 5368806 5368807 10737418 999999 0 10737418 5368784 5368785 5368784 5368783 5368770 5368771 5368772 5368771 5368759 5368758 5368759 5368760 5368782 5368781 5368780 5368781 5368791 5368792 5368793 5368792 5368807 5368808 5368809 5368808 
5368709 5368709 5368709 5368709 5368709 5368818 5368819 5368820 5368819 5368800 5368801 5368802 5368801 5368807 5368806 5368807 5368808 10737418 10737418 999999 0 5368785 5368786 5368785 5368784 5368771 5368772 5368773 5368772 5368760 5368759 5368760 5368761 5368783 5368782 5368781 5368782 5368792 5368793 5368794 5368793 5368808 5368809 5368810 5368809 
5368709 5368709 5368709 5368709 5368709 5368819 5368820 5368821 5368820 5368801 5368802 5368803 5368802 5368808 5368807 5368808 5368809 0 10737418 10737418 999999 5368786 5368787 5368786 5368785 5368772 5368773 5368774 5368773 5368761 5368760 5368761 5368762 5368784 5368783 5368782 5368783 5368793 5368794 5368795 5368794 5368809 5368810 5368811 5368810 
5368709 5368709 5368709 5368709 5368709 5368815 5368816 5368817 5368816 5368797 5368798 5368799 5368798 5368804 5368803 5368804 5368805 5368783 5368784 5368785 5368784 999999 0 10737418 10737418 5368764 5368765 5368766 5368765 5368757 5368756 5368757 5368758 5368780 5368779 5368778 5368779 5368789 5368790 5368791 5368790 5368801 5368802 5368803 5368802 
5368709 5368709 5368709 5368709 5368709 5368816 5368817 5368818 5368817 5368798 5368799 5368800 5368799 5368805 5368804 5368805 5368806 5368784 5368785 5368786 5368785 10737418 999999 0 10737418 5368765 5368766 5368767 5368766 5368758 5368757 5368758 5368759 5368781 5368780 5368779 5368780 5368790 5368791 5368792 5368791 5368802 5368803 5368804 5368803 
5368709 5368709 5368709 5368709 5368709 5368817 5368818 5368819 5368818 5368799 5368800 5368801 5368800 5368806 5368805 5368806 5368807 5368785 5368786 5368787 5368786 10737418 10737418 999999 0 5368766 5368767 5368768 5368767 5368759 5368758 5368759 5368760 5368782 5368781 5368780 5368781 5368791 5368792 5368793 5368792 5368803 5368804 5368805 5368804 
5368709 5368709 5368709 5368709 5368709 5368816 5368817 5368818 5368817 5368798 5368799 5368800 5368799 5368805 5368804 5368805 5368806 5368784 5368785 5368786 5368785 0 10737418 10737418 999999 5368765 5368766 5368767 5368766 5368758 5368757 5368758 5368759 5368781 5368780 5368779 5368780 5368790 5368791 5368792 5368791 5368802 5368803 5368804 5368803 
5368709 5368709 5368709 5368709 5368709 5368769 5368770 5368771 5368770 5368751 5368752 5368753 5368752 5368758 5368757 5368758 5368759 5368771 5368772 5368773 5368772 5368766 5368767 5368766 5368765 999999 0 10737418 10737418 5368725 5368726 5368725 5368724 5368734 5368733 5368732 5368733 5368743 5368744 5368745 5368744 5368753 5368754 5368755 5368754 
5368709 5368709 5368709 5368709 5368709 5368768 5368769 5368770 5368769 5368750 5368751 5368752 5368751 5368757 5368756 5368757 5368758 5368770 5368771 5368772 5368771 5368765 5368766 5368765 5368764 10737418 999999 0 10737418 5368724 5368725 5368724 5368723 5368733 5368732 5368731 5368732 5368742 5368743 5368744 5368743 5368752 5368753 5368754 5368753 
5368709 5368709 5368709 5368709 5368709 5368769 5368770 5368771 5368770 5368751 5368752 5368753 5368752 5368758 5368757 5368758 5368759 5368771 5368772 5368773 5368772 5368766 5368767 5368766 5368765 10737418 10737418 999999 0 5368725 5368724 5368723 5368724 5368734 5368733 5368732 5368733 5368743 5368744 5368745 5368744 5368751 5368752 5368753 5368752 
5368709 5368709 5368709 5368709 5368709 5368770 5368771 5368772 5368771 5368752 5368753 5368754 5368753 5368759 5368758 5368759 5368760 5368772 5368773 5368774 5368773 5368767 5368768 5368767 5368766 0 10737418 10737418 999999 5368726 5368725 5368724 5368725 5368735 5368734 5368733 5368734 5368744 5368745 5368746 5368745 5368752 5368753 5368754 5368753 
5368709 5368709 5368709 5368709 5368709 5368772 5368773 5368774 5368773 5368754 5368755 5368756 5368755 5368761 5368760 5368761 5368762 5368760 5368761 5368762 5368761 5368759 5368760 5368759 5368758 5368723 5368724 5368725 5368724 999999 0 10737418 10737418 5368737 5368736 5368735 5368736 5368746 5368747 5368748 5368747 5368760 5368761 5368762 5368761 
5368709 5368709 5368709 5368709 5368709 5368773 5368774 5368775 5368774 5368755 5368756 5368757 5368756 5368762 5368761 5368762 5368763 5368759 5368760 5368761 5368760 5368758 5368759 5368758 5368757 5368724 5368725 5368726 5368725 10737418 999999 0 10737418 5368738 5368737 5368736 5368737 5368747 5368748 5368749 5368748 5368761 5368762 5368763 5368762 
5368709 5368709 5368709 5368709 5368709 5368772 5368773 5368774 5368773 5368754 5368755 5368756 5368755 5368761 5368760 5368761 5368762 5368758 5368759 5368760 5368759 5368757 5368758 5368757 5368756 5368725 5368724 5368725 5368726 10737418 10737418 999999 0 5368737 5368736 5368735 5368736 5368746 5368747 5368748 5368747 5368762 5368763 5368764 5368763 
5368709 5368709 5368709 5368709 5368709 5368771 5368772 5368773 5368772 5368753 5368754 5368755 5368754 5368760 5368759 5368760 5368761 5368759 5368760 5368761 5368760 5368758 5368759 5368758 5368757 5368724 5368723 5368724 5368725 0 10737418 10737418 999999 5368736 5368735 5368734 5368735 5368745 5368746 5368747 5368746 5368761 5368762 5368763 5368762 
5368709 5368709 5368709 5368709 5368709 5368751 5368752 5368753 5368752 5368733 5368734 5368735 5368734 5368736 5368735 5368736 5368737 5368781 5368782 5368783 5368782 5368780 5368781 5368780 5368779 5368732 5368733 5368734 5368733 5368737 5368736 5368735 5368736 999999 0 10737418 10737418 5368725 5368726 5368727 5368726 5368773 5368774 5368775 5368774 
5368709 5368709 5368709 5368709 5368709 5368752 5368753 5368754 5368753 5368734 5368735 5368736 5368735 5368735 5368734 5368735 5368736 5368782 5368783 5368784 5368783 5368781 5368782 5368781 5368780 5368733 5368734 5368735 5368734 5368738 5368737 5368736 5368737 10737418 999999 0 10737418 5368726 5368727 5368728 5368727 5368774 5368775 5368776 5368775 
5368709 5368709 5368709 5368709 5368709 5368753 5368754 5368755 5368754 5368735 5368736 5368737 5368736 5368736 5368735 5368736 5368737 5368781 5368782 5368783 5368782 5368780 5368781 5368780 5368779 5368732 5368733 5368734 5368733 5368737 5368736 5368735 5368736 10737418 10737418 999999 0 5368727 5368728 5368729 5368728 5368773 5368774 5368775 5368774 
5368709 5368709 5368709 5368709 5368709 5368752 5368753 5368754 5368753 5368734 5368735 5368736 5368735 5368737 5368736 5368737 5368738 5368780 5368781 5368782 5368781 5368779 5368780 5368779 5368778 5368731 5368732 5368733 5368732 5368736 5368735 5368734 5368735 0 10737418 10737418 999999 5368726 5368727 5368728 5368727 5368772 5368773 5368774 5368773 
5368709 5368709 5368709 5368709 5368709 5368736 5368737 5368738 5368737 5368718 5368719 5368720 5368719 5368729 5368728 5368729 5368730 5368792 5368793 5368794 5368793 5368791 5368792 5368791 5368790 5368743 5368744 5368745 5368744 5368748 5368747 5368746 5368747 5368727 5368728 5368727 5368726 999999 0 10737418 10737418 5368784 5368785 5368786 5368785 
5368709 5368709 5368709 5368709 5368709 5368737 5368738 5368739 5368738 5368719 5368720 5368721 5368720 5368728 5368727 5368728 5368729 5368791 5368792 5368793 5368792 5368790 5368791 5368790 5368789 5368742 5368743 5368744 5368743 5368747 5368746 5368745 5368746 5368726 5368727 5368726 5368725 10737418 999999 0 10737418 5368783 5368784 5368785 5368784 
5368709 5368709 5368709 5368709 5368709 5368738 5368737 5368738 5368739 5368720 5368719 5368720 5368721 5368729 5368728 5368729 5368730 5368792 5368793 5368794 5368793 5368791 5368792 5368791 5368790 5368743 5368744 5368745 5368744 5368748 5368747 5368746 5368747 5368727 5368728 5368727 5368726 10737418 10737418 999999 0 5368784 5368785 5368786 5368785 
5368709 5368709 5368709 5368709 5368709 5368737 5368736 5368737 5368738 5368719 5368718 5368719 5368720 5368730 5368729 5368730 5368731 5368793 5368794 5368795 5368794 5368792 5368793 5368792 5368791 5368744 5368745 5368746 5368745 5368749 5368748 5368747 5368748 5368728 5368729 5368728 5368727 0 10737418 10737418 999999 5368785 5368786 5368787 5368786 
5368709 5368709 5368709 5368709 5368709 5368810 5368811 5368812 5368811 5368792 5368793 5368794 5368793 5368799 5368798 5368799 5368800 5368808 5368809 5368810 5368809 5368803 5368804 5368803 5368802 5368753 5368752 5368753 5368754 5368762 5368763 5368762 5368761 5368775 5368774 5368773 5368774 5368784 5368785 5368786 5368785 999999 0 10737418 10737418 
5368709 5368709 5368709 5368709 5368709 5368809 5368810 5368811 5368810 5368791 5368792 5368793 5368792 5368798 5368797 5368798 5368799 5368807 5368808 5368809 5368808 5368802 5368803 5368802 5368801 5368752 5368751 5368752 5368753 5368761 5368762 5368761 5368760 5368774 5368773 5368772 5368773 5368783 5368784 5368785 5368784 10737418 999999 0 10737418 
5368709 5368709 5368709 5368709 5368709 5368810 5368811 5368812 5368811 5368792 5368793 5368794 5368793 5368799 5368798 5368799 5368800 5368808 5368809 5368810 5368809 5368803 5368804 5368803 5368802 5368753 5368752 5368753 5368754 5368762 5368763 5368762 5368761 5368775 5368774 5368773 5368774 5368784 5368785 5368786 5368785 10737418 10737418 999999 0 
5368709 5368709 5368709 5368709 5368709 5368811 5368812 5368813 5368812 5368793 5368794 5368795 5368794 5368800 5368799 5368800 5368801 5368809 5368810 5368811 5368810 5368804 5368805 5368804 5368803 5368754 5368753 5368754 5368755 5368763 5368764 5368763 5368762 5368776 5368775 5368774 5368775 5368785 5368786 5368787 5368786 0 10737418 10737418 999999 
EOF
