GLKH-1.1/TMP/mtspf.pid6402.tour
NAME : mtspf.pid6402.gtsp.80530842.tour
COMMENT : Length = 80530842
COMMENT : Found by LKH [Keld Helsgaun] Sun Feb 23 00:29:06 2025
TYPE : TOUR
DIMENSION : 45
TOUR_SECTION
1
5
8
9
6
7
12
13
10
11
40
41
38
39
37
34
35
36
15
16
17
14
4
28
29
26
27
33
30
31
32
18
19
20
21
2
25
22
23
24
3
42
43
44
45
-1
EOF
